************************************************************************
file with basedata            : mm3_.bas
initial value random generator: 798277178
************************************************************************
projects                      :  1
jobs (incl. supersource/sink ):  12
horizon                       :  76
RESOURCES
  - renewable                 :  2   R
  - nonrenewable              :  2   N
  - doubly constrained        :  0   D
************************************************************************
PROJECT INFORMATION:
pronr.  #jobs rel.date duedate tardcost  MPM-Time
    1     10      0       14        2       14
************************************************************************
PRECEDENCE RELATIONS:
jobnr.    #modes  #successors   successors
   0        1          3           1   2   3
   1        3          1           4
   2        3          3           5   6   7
   3        3          1           4
   4        3          1           8
   5        3          3           8   9  10
   6        3          1           9
   7        3          2           8  10
   8        3          1          11
   9        3          1          11
  10        3          1          11
  11        1          0        
************************************************************************
REQUESTS/DURATIONS:
jobnr. mode duration  R 1  R 2  R 3  R 4  E(W 1)  E(W 2)  E(W 3)
------------------------------------------------------------------------
  0      1     0       0    0    0    0     0       0       0
  1      1     3       0    2    8    0     6      24       0
  2      1     6       5    0    4    0    30      24       0
  3      1     4       0    9    0    3    36       0      12
  4      1     6       0    5    0    8    30       0      48
  5      1     4       9    0    9    0    36      36       0
  6      1     7       7    0    0    4    49       0      28
  7      1     1       0    9    0    3     9       0       3
  8      1     2       9    0    0    8    18       0      16
  9      1     1       9    0    0    8     9       0       8
 10      1     3       0    8    5    0    24      15       0
 11      1     0       0    0    0    0     0       0       0
************************************************************************
RESOURCEAVAILABILITIES:
  R 1  R 2  R 3
   21   41   43
************************************************************************
RESOURCE LIMITS:
jobnr.  l(R 1)  u(R 1)  l(R 2)  u(R 2)  l(R 3)  u(R 3)
------------------------------------------------------------------------
  0        0       0       0       0       0       0
  1        1       2       4       8       0       0
  2        3       5       2       4       0       0
  3        5       9       0       0       2       3
  4        3       5       0       0       4       8
  5        5       9       5       9       0       0
  6        4       7       0       0       2       4
  7        5       9       0       0       2       3
  8        5       9       0       0       4       8
  9        5       9       0       0       4       8
 10        4       8       3       5       0       0
 11        0       0       0       0       0       0
************************************************************************
SCENARIOS:
------------------------------------------------------------------------
RESOURCE k = 1
s = 1: (0, 12, 44, 30, 19, 43, 68, 8, 17, 6, 19, 0)
s = 2: (0, 6, 32, 44, 34, 31, 59, 8, 18, 14, 33, 0)
s = 3: (0, 5, 36, 39, 32, 25, 45, 9, 14, 13, 38, 0)
s = 4: (0, 7, 37, 23, 30, 29, 70, 12, 17, 9, 32, 0)
s = 5: (0, 6, 31, 30, 23, 48, 38, 10, 17, 14, 16, 0)
s = 6: (0, 4, 27, 51, 18, 22, 38, 10, 21, 10, 25, 0)
s = 7: (0, 8, 20, 31, 28, 33, 35, 8, 20, 7, 26, 0)
s = 8: (0, 5, 47, 57, 45, 20, 49, 12, 16, 12, 21, 0)
s = 9: (0, 7, 19, 29, 32, 27, 45, 7, 22, 12, 18, 0)
s = 10: (0, 6, 19, 55, 44, 39, 42, 11, 19, 9, 19, 0)
s = 11: (0, 6, 35, 42, 23, 28, 61, 10, 14, 8, 17, 0)
s = 12: (0, 4, 17, 28, 40, 26, 47, 5, 23, 12, 23, 0)
s = 13: (0, 12, 23, 55, 26, 27, 79, 10, 18, 10, 33, 0)
s = 14: (0, 8, 38, 29, 28, 29, 39, 9, 18, 8, 42, 0)
s = 15: (0, 5, 29, 23, 44, 38, 62, 7, 20, 10, 26, 0)
s = 16: (0, 5, 40, 25, 25, 43, 38, 6, 15, 8, 21, 0)
s = 17: (0, 8, 21, 39, 39, 26, 38, 7, 24, 11, 18, 0)
s = 18: (0, 6, 21, 43, 46, 39, 34, 9, 14, 7, 29, 0)
s = 19: (0, 6, 34, 34, 20, 39, 49, 13, 12, 8, 28, 0)
s = 20: (0, 5, 20, 29, 28, 39, 56, 6, 21, 13, 26, 0)
s = 21: (0, 8, 23, 25, 20, 42, 82, 11, 18, 14, 24, 0)
s = 22: (0, 6, 32, 44, 27, 36, 74, 10, 20, 7, 17, 0)
s = 23: (0, 9, 30, 49, 24, 35, 61, 11, 15, 7, 20, 0)
s = 24: (0, 6, 19, 41, 26, 26, 77, 9, 19, 8, 25, 0)
s = 25: (0, 5, 21, 53, 28, 51, 58, 8, 17, 9, 35, 0)
s = 26: (0, 8, 33, 42, 36, 52, 61, 11, 17, 12, 16, 0)
s = 27: (0, 8, 25, 31, 24, 37, 42, 12, 20, 9, 29, 0)
s = 28: (0, 5, 39, 44, 26, 27, 36, 9, 17, 12, 28, 0)
s = 29: (0, 6, 25, 43, 29, 28, 34, 6, 12, 8, 22, 0)
s = 30: (0, 5, 18, 48, 44, 37, 44, 10, 23, 11, 23, 0)
s = 31: (0, 4, 19, 26, 22, 29, 45, 10, 13, 14, 29, 0)
s = 32: (0, 6, 40, 34, 41, 48, 38, 11, 15, 8, 24, 0)
s = 33: (0, 6, 34, 38, 42, 28, 34, 8, 20, 7, 27, 0)
s = 34: (0, 5, 45, 53, 41, 25, 34, 7, 13, 11, 29, 0)
s = 35: (0, 5, 25, 31, 21, 39, 28, 10, 12, 11, 25, 0)
s = 36: (0, 7, 28, 34, 36, 29, 27, 5, 20, 11, 17, 0)
s = 37: (0, 5, 33, 38, 31, 55, 39, 12, 25, 9, 20, 0)
s = 38: (0, 6, 26, 38, 37, 40, 28, 7, 25, 16, 29, 0)
s = 39: (0, 7, 25, 31, 41, 38, 28, 9, 18, 11, 29, 0)
s = 40: (0, 7, 30, 43, 21, 33, 34, 6, 22, 7, 24, 0)
s = 41: (0, 7, 27, 30, 17, 36, 47, 13, 14, 8, 29, 0)
s = 42: (0, 6, 41, 36, 30, 58, 39, 8, 11, 6, 25, 0)
s = 43: (0, 5, 24, 50, 27, 28, 64, 7, 20, 6, 20, 0)
s = 44: (0, 6, 25, 46, 44, 46, 33, 7, 22, 7, 18, 0)
s = 45: (0, 7, 33, 22, 28, 62, 32, 6, 23, 7, 20, 0)
s = 46: (0, 4, 24, 24, 28, 39, 30, 8, 17, 6, 31, 0)
s = 47: (0, 4, 43, 25, 37, 41, 55, 6, 21, 14, 21, 0)
s = 48: (0, 11, 26, 46, 22, 35, 76, 9, 25, 8, 27, 0)
s = 49: (0, 5, 53, 43, 23, 45, 34, 7, 19, 11, 16, 0)
s = 50: (0, 4, 35, 27, 20, 57, 75, 10, 15, 12, 20, 0)
s = 51: (0, 8, 33, 28, 43, 34, 42, 11, 17, 8, 32, 0)
s = 52: (0, 8, 38, 25, 37, 34, 42, 10, 31, 10, 18, 0)
s = 53: (0, 9, 47, 25, 25, 57, 52, 6, 29, 14, 16, 0)
s = 54: (0, 7, 20, 44, 42, 33, 32, 7, 12, 12, 22, 0)
s = 55: (0, 5, 17, 44, 23, 49, 41, 5, 20, 5, 18, 0)
s = 56: (0, 9, 42, 39, 21, 37, 40, 6, 15, 7, 27, 0)
s = 57: (0, 4, 23, 27, 22, 47, 76, 13, 14, 7, 26, 0)
s = 58: (0, 9, 23, 31, 31, 31, 45, 12, 17, 16, 25, 0)
s = 59: (0, 6, 18, 47, 18, 29, 35, 8, 18, 9, 25, 0)
s = 60: (0, 5, 33, 62, 28, 34, 45, 7, 20, 7, 15, 0)
s = 61: (0, 9, 24, 27, 25, 30, 32, 10, 16, 8, 37, 0)
s = 62: (0, 8, 39, 26, 59, 56, 37, 9, 12, 9, 19, 0)
s = 63: (0, 8, 23, 22, 56, 46, 41, 8, 18, 12, 24, 0)
s = 64: (0, 6, 19, 24, 35, 41, 26, 10, 13, 10, 17, 0)
s = 65: (0, 6, 20, 49, 38, 35, 61, 9, 22, 7, 28, 0)
s = 66: (0, 6, 22, 40, 31, 30, 43, 9, 11, 10, 36, 0)
s = 67: (0, 4, 19, 52, 23, 32, 64, 10, 17, 7, 23, 0)
s = 68: (0, 9, 36, 42, 32, 38, 44, 7, 35, 11, 18, 0)
s = 69: (0, 9, 40, 45, 23, 36, 53, 10, 17, 9, 25, 0)
s = 70: (0, 7, 35, 30, 39, 22, 49, 7, 15, 10, 29, 0)
s = 71: (0, 7, 22, 33, 20, 47, 29, 7, 21, 14, 24, 0)
s = 72: (0, 5, 33, 22, 17, 38, 37, 10, 23, 7, 18, 0)
s = 73: (0, 5, 25, 31, 47, 25, 44, 14, 17, 11, 14, 0)
s = 74: (0, 8, 20, 55, 33, 29, 58, 8, 16, 9, 31, 0)
s = 75: (0, 7, 24, 35, 37, 27, 31, 6, 21, 11, 28, 0)
s = 76: (0, 7, 27, 29, 27, 54, 63, 8, 14, 9, 23, 0)
s = 77: (0, 8, 33, 34, 21, 71, 55, 7, 29, 9, 33, 0)
s = 78: (0, 11, 37, 42, 34, 58, 49, 12, 18, 6, 30, 0)
s = 79: (0, 5, 40, 35, 17, 50, 57, 11, 14, 10, 26, 0)
s = 80: (0, 5, 23, 42, 37, 46, 32, 8, 14, 13, 24, 0)
s = 81: (0, 5, 32, 49, 33, 23, 44, 8, 16, 12, 19, 0)
s = 82: (0, 6, 28, 25, 25, 24, 44, 15, 16, 7, 17, 0)
s = 83: (0, 8, 26, 39, 28, 40, 43, 11, 12, 6, 31, 0)
s = 84: (0, 5, 41, 47, 28, 33, 60, 8, 12, 10, 23, 0)
s = 85: (0, 7, 21, 32, 37, 30, 39, 5, 19, 13, 26, 0)
s = 86: (0, 7, 22, 47, 32, 52, 48, 10, 15, 8, 30, 0)
s = 87: (0, 7, 37, 27, 28, 44, 32, 10, 20, 5, 23, 0)
s = 88: (0, 7, 28, 25, 20, 32, 58, 8, 14, 11, 37, 0)
s = 89: (0, 6, 36, 27, 37, 28, 46, 9, 16, 11, 26, 0)
s = 90: (0, 5, 31, 41, 25, 50, 45, 13, 13, 14, 28, 0)
s = 91: (0, 7, 35, 47, 42, 45, 48, 12, 17, 10, 36, 0)
s = 92: (0, 8, 28, 35, 53, 65, 84, 12, 19, 5, 26, 0)
s = 93: (0, 7, 40, 53, 46, 38, 39, 8, 17, 9, 32, 0)
s = 94: (0, 6, 17, 42, 51, 41, 43, 9, 17, 7, 35, 0)
s = 95: (0, 5, 28, 47, 22, 47, 63, 6, 28, 7, 17, 0)
s = 96: (0, 9, 45, 52, 49, 45, 44, 12, 15, 8, 22, 0)
s = 97: (0, 6, 33, 27, 45, 48, 80, 5, 15, 12, 26, 0)
s = 98: (0, 7, 27, 30, 26, 65, 38, 12, 11, 7, 25, 0)
s = 99: (0, 6, 39, 43, 20, 26, 78, 9, 26, 11, 20, 0)
s = 100: (0, 7, 18, 39, 28, 44, 55, 10, 14, 7, 15, 0)
s = 101: (0, 7, 19, 28, 25, 48, 45, 9, 11, 12, 18, 0)
s = 102: (0, 8, 20, 29, 19, 30, 31, 13, 12, 9, 28, 0)
s = 103: (0, 6, 25, 36, 33, 41, 67, 7, 17, 16, 35, 0)
s = 104: (0, 7, 41, 44, 31, 40, 52, 16, 17, 9, 20, 0)
s = 105: (0, 6, 31, 49, 31, 46, 54, 8, 13, 9, 25, 0)
s = 106: (0, 5, 26, 51, 21, 55, 26, 9, 11, 7, 25, 0)
s = 107: (0, 4, 21, 35, 45, 51, 79, 7, 17, 14, 14, 0)
s = 108: (0, 7, 20, 35, 34, 46, 56, 12, 23, 8, 19, 0)
s = 109: (0, 6, 30, 30, 30, 32, 49, 6, 19, 6, 22, 0)
s = 110: (0, 4, 20, 30, 28, 56, 80, 9, 11, 12, 25, 0)
s = 111: (0, 11, 20, 45, 19, 35, 59, 9, 24, 10, 23, 0)
s = 112: (0, 6, 33, 28, 26, 41, 37, 7, 17, 10, 20, 0)
s = 113: (0, 10, 46, 50, 50, 46, 40, 11, 22, 11, 32, 0)
s = 114: (0, 5, 29, 24, 32, 32, 41, 8, 28, 8, 25, 0)
s = 115: (0, 8, 27, 34, 31, 34, 39, 11, 18, 6, 27, 0)
s = 116: (0, 9, 50, 33, 28, 24, 36, 11, 18, 9, 16, 0)
s = 117: (0, 8, 24, 34, 18, 41, 40, 15, 29, 8, 18, 0)
s = 118: (0, 7, 38, 24, 34, 28, 38, 9, 16, 6, 26, 0)
s = 119: (0, 7, 22, 33, 30, 58, 75, 5, 19, 11, 20, 0)
s = 120: (0, 7, 19, 33, 34, 32, 78, 9, 24, 6, 34, 0)
s = 121: (0, 6, 24, 45, 28, 51, 55, 8, 21, 8, 34, 0)
s = 122: (0, 5, 19, 44, 25, 29, 65, 7, 26, 10, 24, 0)
s = 123: (0, 8, 34, 27, 26, 44, 60, 6, 24, 10, 17, 0)
s = 124: (0, 6, 30, 33, 27, 43, 43, 11, 21, 8, 18, 0)
s = 125: (0, 5, 28, 54, 32, 34, 45, 7, 23, 6, 16, 0)
s = 126: (0, 4, 28, 37, 25, 33, 53, 8, 19, 6, 27, 0)
s = 127: (0, 7, 24, 43, 20, 44, 48, 6, 17, 7, 30, 0)
s = 128: (0, 8, 35, 53, 47, 38, 46, 9, 20, 6, 29, 0)
s = 129: (0, 5, 37, 47, 27, 27, 39, 8, 21, 11, 31, 0)
s = 130: (0, 8, 31, 41, 16, 27, 76, 8, 21, 9, 15, 0)
s = 131: (0, 7, 25, 30, 24, 25, 31, 7, 21, 9, 13, 0)
s = 132: (0, 8, 26, 34, 38, 35, 43, 13, 14, 6, 25, 0)
s = 133: (0, 8, 25, 27, 26, 25, 56, 9, 24, 10, 22, 0)
s = 134: (0, 8, 32, 60, 29, 33, 57, 13, 19, 8, 21, 0)
s = 135: (0, 7, 33, 28, 31, 31, 56, 11, 16, 10, 16, 0)
s = 136: (0, 7, 28, 46, 23, 34, 59, 5, 22, 7, 17, 0)
s = 137: (0, 7, 26, 26, 29, 24, 32, 10, 18, 9, 20, 0)
s = 138: (0, 4, 23, 47, 25, 27, 50, 13, 12, 8, 28, 0)
s = 139: (0, 8, 42, 24, 27, 29, 58, 10, 15, 13, 20, 0)
s = 140: (0, 8, 18, 36, 38, 40, 58, 9, 17, 14, 16, 0)
s = 141: (0, 8, 20, 36, 33, 35, 45, 9, 21, 9, 38, 0)
s = 142: (0, 6, 35, 50, 44, 39, 31, 9, 23, 8, 27, 0)
s = 143: (0, 7, 34, 34, 21, 59, 43, 9, 27, 9, 24, 0)
s = 144: (0, 6, 32, 38, 33, 25, 42, 6, 11, 10, 14, 0)
s = 145: (0, 5, 45, 38, 29, 38, 58, 12, 12, 13, 17, 0)
s = 146: (0, 4, 36, 38, 28, 48, 50, 8, 13, 8, 24, 0)
s = 147: (0, 8, 40, 29, 25, 49, 33, 11, 17, 13, 26, 0)
s = 148: (0, 7, 20, 44, 27, 26, 57, 10, 19, 7, 26, 0)
s = 149: (0, 8, 26, 51, 25, 40, 29, 11, 27, 6, 18, 0)
s = 150: (0, 6, 25, 51, 24, 41, 65, 8, 11, 9, 27, 0)
s = 151: (0, 6, 19, 27, 42, 47, 47, 13, 19, 7, 17, 0)
s = 152: (0, 9, 38, 32, 39, 23, 70, 7, 12, 10, 20, 0)
s = 153: (0, 12, 27, 35, 33, 41, 28, 8, 14, 10, 24, 0)
s = 154: (0, 6, 32, 31, 35, 34, 37, 9, 25, 8, 23, 0)
s = 155: (0, 5, 34, 31, 24, 44, 63, 9, 21, 16, 32, 0)
s = 156: (0, 7, 16, 26, 20, 45, 40, 9, 19, 8, 17, 0)
s = 157: (0, 8, 45, 35, 41, 33, 50, 11, 20, 6, 27, 0)
s = 158: (0, 6, 22, 39, 36, 39, 60, 12, 18, 9, 32, 0)
s = 159: (0, 6, 41, 25, 26, 33, 55, 7, 12, 6, 29, 0)
s = 160: (0, 7, 31, 27, 39, 21, 35, 11, 17, 11, 21, 0)
s = 161: (0, 8, 39, 39, 36, 28, 51, 10, 21, 14, 16, 0)
s = 162: (0, 7, 31, 23, 25, 29, 52, 10, 27, 9, 17, 0)
s = 163: (0, 8, 32, 32, 24, 34, 48, 10, 21, 11, 21, 0)
s = 164: (0, 5, 34, 43, 22, 35, 56, 13, 28, 12, 17, 0)
s = 165: (0, 9, 31, 43, 25, 24, 40, 12, 22, 11, 28, 0)
s = 166: (0, 7, 48, 21, 27, 31, 80, 13, 21, 6, 30, 0)
s = 167: (0, 5, 33, 30, 29, 28, 36, 8, 16, 12, 34, 0)
s = 168: (0, 7, 35, 26, 42, 23, 53, 9, 20, 7, 32, 0)
s = 169: (0, 5, 31, 40, 35, 32, 54, 12, 31, 13, 16, 0)
s = 170: (0, 6, 60, 35, 31, 41, 31, 6, 17, 15, 33, 0)
s = 171: (0, 8, 24, 21, 30, 29, 38, 8, 29, 5, 19, 0)
s = 172: (0, 10, 30, 36, 36, 23, 40, 8, 13, 14, 30, 0)
s = 173: (0, 7, 25, 25, 38, 30, 33, 8, 14, 9, 33, 0)
s = 174: (0, 7, 34, 37, 41, 27, 46, 9, 20, 14, 29, 0)
s = 175: (0, 7, 32, 45, 33, 46, 29, 10, 14, 11, 23, 0)
s = 176: (0, 7, 32, 25, 23, 31, 47, 10, 20, 9, 16, 0)
s = 177: (0, 6, 36, 44, 23, 31, 41, 6, 19, 7, 27, 0)
s = 178: (0, 6, 30, 24, 31, 37, 49, 13, 19, 7, 32, 0)
s = 179: (0, 8, 19, 41, 26, 65, 72, 12, 10, 7, 30, 0)
s = 180: (0, 6, 18, 40, 32, 37, 61, 13, 13, 12, 21, 0)
s = 181: (0, 5, 27, 27, 37, 49, 74, 8, 21, 7, 21, 0)
s = 182: (0, 5, 39, 23, 46, 28, 50, 7, 29, 7, 25, 0)
s = 183: (0, 11, 40, 22, 20, 38, 36, 9, 15, 9, 37, 0)
s = 184: (0, 4, 40, 34, 28, 35, 39, 8, 23, 6, 20, 0)
s = 185: (0, 9, 26, 29, 24, 45, 30, 9, 24, 10, 23, 0)
s = 186: (0, 5, 23, 37, 27, 47, 39, 8, 21, 11, 15, 0)
s = 187: (0, 4, 25, 41, 31, 54, 92, 9, 16, 9, 32, 0)
s = 188: (0, 5, 27, 26, 19, 27, 63, 6, 12, 7, 14, 0)
s = 189: (0, 5, 29, 27, 17, 27, 38, 11, 21, 11, 23, 0)
s = 190: (0, 6, 38, 32, 40, 32, 62, 7, 14, 8, 25, 0)
s = 191: (0, 4, 36, 24, 25, 46, 59, 6, 29, 13, 23, 0)
s = 192: (0, 5, 20, 42, 27, 21, 27, 11, 14, 7, 34, 0)
s = 193: (0, 6, 20, 43, 41, 31, 64, 11, 13, 13, 13, 0)
s = 194: (0, 7, 36, 43, 21, 32, 29, 14, 20, 7, 37, 0)
s = 195: (0, 4, 18, 29, 38, 29, 59, 11, 12, 7, 25, 0)
s = 196: (0, 4, 25, 46, 43, 29, 56, 10, 23, 12, 19, 0)
s = 197: (0, 8, 25, 33, 38, 24, 40, 7, 26, 7, 24, 0)
s = 198: (0, 11, 40, 34, 29, 24, 55, 6, 11, 8, 22, 0)
s = 199: (0, 5, 28, 46, 49, 35, 58, 11, 15, 13, 29, 0)
s = 200: (0, 6, 25, 32, 21, 47, 75, 12, 10, 13, 22, 0)
------------------------------------------------------------------------
RESOURCE k = 2
s = 1: (0, 46, 36, 0, 0, 43, 0, 0, 0, 0, 12, 0)
s = 2: (0, 22, 25, 0, 0, 31, 0, 0, 0, 0, 21, 0)
s = 3: (0, 20, 29, 0, 0, 25, 0, 0, 0, 0, 24, 0)
s = 4: (0, 26, 30, 0, 0, 29, 0, 0, 0, 0, 20, 0)
s = 5: (0, 23, 25, 0, 0, 48, 0, 0, 0, 0, 10, 0)
s = 6: (0, 16, 22, 0, 0, 22, 0, 0, 0, 0, 16, 0)
s = 7: (0, 32, 16, 0, 0, 33, 0, 0, 0, 0, 16, 0)
s = 8: (0, 19, 38, 0, 0, 20, 0, 0, 0, 0, 13, 0)
s = 9: (0, 28, 15, 0, 0, 27, 0, 0, 0, 0, 11, 0)
s = 10: (0, 23, 16, 0, 0, 39, 0, 0, 0, 0, 12, 0)
s = 11: (0, 21, 28, 0, 0, 28, 0, 0, 0, 0, 11, 0)
s = 12: (0, 16, 14, 0, 0, 26, 0, 0, 0, 0, 14, 0)
s = 13: (0, 45, 18, 0, 0, 27, 0, 0, 0, 0, 21, 0)
s = 14: (0, 29, 31, 0, 0, 29, 0, 0, 0, 0, 27, 0)
s = 15: (0, 17, 23, 0, 0, 38, 0, 0, 0, 0, 17, 0)
s = 16: (0, 20, 32, 0, 0, 43, 0, 0, 0, 0, 13, 0)
s = 17: (0, 29, 17, 0, 0, 26, 0, 0, 0, 0, 12, 0)
s = 18: (0, 22, 17, 0, 0, 39, 0, 0, 0, 0, 18, 0)
s = 19: (0, 24, 28, 0, 0, 39, 0, 0, 0, 0, 18, 0)
s = 20: (0, 18, 16, 0, 0, 39, 0, 0, 0, 0, 16, 0)
s = 21: (0, 29, 18, 0, 0, 42, 0, 0, 0, 0, 15, 0)
s = 22: (0, 23, 25, 0, 0, 36, 0, 0, 0, 0, 11, 0)
s = 23: (0, 33, 24, 0, 0, 35, 0, 0, 0, 0, 13, 0)
s = 24: (0, 22, 16, 0, 0, 26, 0, 0, 0, 0, 16, 0)
s = 25: (0, 18, 17, 0, 0, 51, 0, 0, 0, 0, 22, 0)
s = 26: (0, 32, 26, 0, 0, 52, 0, 0, 0, 0, 10, 0)
s = 27: (0, 32, 20, 0, 0, 37, 0, 0, 0, 0, 19, 0)
s = 28: (0, 17, 31, 0, 0, 27, 0, 0, 0, 0, 18, 0)
s = 29: (0, 23, 20, 0, 0, 28, 0, 0, 0, 0, 14, 0)
s = 30: (0, 18, 15, 0, 0, 37, 0, 0, 0, 0, 15, 0)
s = 31: (0, 16, 15, 0, 0, 29, 0, 0, 0, 0, 18, 0)
s = 32: (0, 22, 32, 0, 0, 48, 0, 0, 0, 0, 15, 0)
s = 33: (0, 22, 27, 0, 0, 28, 0, 0, 0, 0, 17, 0)
s = 34: (0, 17, 36, 0, 0, 25, 0, 0, 0, 0, 18, 0)
s = 35: (0, 20, 20, 0, 0, 39, 0, 0, 0, 0, 16, 0)
s = 36: (0, 28, 23, 0, 0, 29, 0, 0, 0, 0, 11, 0)
s = 37: (0, 18, 26, 0, 0, 55, 0, 0, 0, 0, 13, 0)
s = 38: (0, 24, 21, 0, 0, 40, 0, 0, 0, 0, 18, 0)
s = 39: (0, 28, 20, 0, 0, 38, 0, 0, 0, 0, 18, 0)
s = 40: (0, 25, 24, 0, 0, 33, 0, 0, 0, 0, 15, 0)
s = 41: (0, 28, 22, 0, 0, 36, 0, 0, 0, 0, 18, 0)
s = 42: (0, 21, 33, 0, 0, 58, 0, 0, 0, 0, 16, 0)
s = 43: (0, 19, 19, 0, 0, 28, 0, 0, 0, 0, 13, 0)
s = 44: (0, 21, 20, 0, 0, 46, 0, 0, 0, 0, 12, 0)
s = 45: (0, 26, 27, 0, 0, 62, 0, 0, 0, 0, 13, 0)
s = 46: (0, 14, 19, 0, 0, 39, 0, 0, 0, 0, 19, 0)
s = 47: (0, 13, 35, 0, 0, 41, 0, 0, 0, 0, 14, 0)
s = 48: (0, 41, 21, 0, 0, 35, 0, 0, 0, 0, 17, 0)
s = 49: (0, 19, 42, 0, 0, 45, 0, 0, 0, 0, 10, 0)
s = 50: (0, 16, 28, 0, 0, 57, 0, 0, 0, 0, 13, 0)
s = 51: (0, 32, 26, 0, 0, 34, 0, 0, 0, 0, 20, 0)
s = 52: (0, 29, 30, 0, 0, 34, 0, 0, 0, 0, 11, 0)
s = 53: (0, 33, 37, 0, 0, 57, 0, 0, 0, 0, 10, 0)
s = 54: (0, 27, 16, 0, 0, 33, 0, 0, 0, 0, 14, 0)
s = 55: (0, 20, 14, 0, 0, 49, 0, 0, 0, 0, 12, 0)
s = 56: (0, 34, 34, 0, 0, 37, 0, 0, 0, 0, 17, 0)
s = 57: (0, 14, 18, 0, 0, 47, 0, 0, 0, 0, 16, 0)
s = 58: (0, 33, 19, 0, 0, 31, 0, 0, 0, 0, 16, 0)
s = 59: (0, 21, 14, 0, 0, 29, 0, 0, 0, 0, 16, 0)
s = 60: (0, 18, 27, 0, 0, 34, 0, 0, 0, 0, 10, 0)
s = 61: (0, 34, 19, 0, 0, 30, 0, 0, 0, 0, 23, 0)
s = 62: (0, 30, 32, 0, 0, 56, 0, 0, 0, 0, 12, 0)
s = 63: (0, 31, 19, 0, 0, 46, 0, 0, 0, 0, 15, 0)
s = 64: (0, 21, 16, 0, 0, 41, 0, 0, 0, 0, 11, 0)
s = 65: (0, 23, 16, 0, 0, 35, 0, 0, 0, 0, 18, 0)
s = 66: (0, 22, 18, 0, 0, 30, 0, 0, 0, 0, 22, 0)
s = 67: (0, 16, 15, 0, 0, 32, 0, 0, 0, 0, 15, 0)
s = 68: (0, 34, 29, 0, 0, 38, 0, 0, 0, 0, 11, 0)
s = 69: (0, 34, 32, 0, 0, 36, 0, 0, 0, 0, 16, 0)
s = 70: (0, 26, 28, 0, 0, 22, 0, 0, 0, 0, 18, 0)
s = 71: (0, 27, 17, 0, 0, 47, 0, 0, 0, 0, 15, 0)
s = 72: (0, 20, 27, 0, 0, 38, 0, 0, 0, 0, 12, 0)
s = 73: (0, 17, 20, 0, 0, 25, 0, 0, 0, 0, 9, 0)
s = 74: (0, 32, 16, 0, 0, 29, 0, 0, 0, 0, 19, 0)
s = 75: (0, 26, 19, 0, 0, 27, 0, 0, 0, 0, 18, 0)
s = 76: (0, 27, 22, 0, 0, 54, 0, 0, 0, 0, 15, 0)
s = 77: (0, 29, 27, 0, 0, 71, 0, 0, 0, 0, 21, 0)
s = 78: (0, 42, 30, 0, 0, 58, 0, 0, 0, 0, 19, 0)
s = 79: (0, 19, 32, 0, 0, 50, 0, 0, 0, 0, 17, 0)
s = 80: (0, 17, 19, 0, 0, 46, 0, 0, 0, 0, 15, 0)
s = 81: (0, 19, 26, 0, 0, 23, 0, 0, 0, 0, 12, 0)
s = 82: (0, 24, 23, 0, 0, 24, 0, 0, 0, 0, 11, 0)
s = 83: (0, 31, 21, 0, 0, 40, 0, 0, 0, 0, 20, 0)
s = 84: (0, 20, 33, 0, 0, 33, 0, 0, 0, 0, 15, 0)
s = 85: (0, 28, 17, 0, 0, 30, 0, 0, 0, 0, 17, 0)
s = 86: (0, 25, 17, 0, 0, 52, 0, 0, 0, 0, 19, 0)
s = 87: (0, 25, 29, 0, 0, 44, 0, 0, 0, 0, 15, 0)
s = 88: (0, 26, 22, 0, 0, 32, 0, 0, 0, 0, 23, 0)
s = 89: (0, 24, 29, 0, 0, 28, 0, 0, 0, 0, 16, 0)
s = 90: (0, 18, 25, 0, 0, 50, 0, 0, 0, 0, 18, 0)
s = 91: (0, 25, 28, 0, 0, 45, 0, 0, 0, 0, 22, 0)
s = 92: (0, 30, 22, 0, 0, 65, 0, 0, 0, 0, 16, 0)
s = 93: (0, 27, 32, 0, 0, 38, 0, 0, 0, 0, 20, 0)
s = 94: (0, 21, 14, 0, 0, 41, 0, 0, 0, 0, 22, 0)
s = 95: (0, 19, 23, 0, 0, 47, 0, 0, 0, 0, 11, 0)
s = 96: (0, 34, 36, 0, 0, 45, 0, 0, 0, 0, 14, 0)
s = 97: (0, 24, 26, 0, 0, 48, 0, 0, 0, 0, 17, 0)
s = 98: (0, 27, 22, 0, 0, 65, 0, 0, 0, 0, 16, 0)
s = 99: (0, 24, 31, 0, 0, 26, 0, 0, 0, 0, 12, 0)
s = 100: (0, 26, 14, 0, 0, 44, 0, 0, 0, 0, 10, 0)
s = 101: (0, 27, 16, 0, 0, 48, 0, 0, 0, 0, 12, 0)
s = 102: (0, 30, 16, 0, 0, 30, 0, 0, 0, 0, 18, 0)
s = 103: (0, 21, 20, 0, 0, 41, 0, 0, 0, 0, 22, 0)
s = 104: (0, 26, 33, 0, 0, 40, 0, 0, 0, 0, 13, 0)
s = 105: (0, 24, 25, 0, 0, 46, 0, 0, 0, 0, 16, 0)
s = 106: (0, 20, 21, 0, 0, 55, 0, 0, 0, 0, 16, 0)
s = 107: (0, 14, 17, 0, 0, 51, 0, 0, 0, 0, 9, 0)
s = 108: (0, 26, 16, 0, 0, 46, 0, 0, 0, 0, 12, 0)
s = 109: (0, 23, 24, 0, 0, 32, 0, 0, 0, 0, 14, 0)
s = 110: (0, 15, 16, 0, 0, 56, 0, 0, 0, 0, 16, 0)
s = 111: (0, 41, 16, 0, 0, 35, 0, 0, 0, 0, 15, 0)
s = 112: (0, 21, 26, 0, 0, 41, 0, 0, 0, 0, 13, 0)
s = 113: (0, 38, 37, 0, 0, 46, 0, 0, 0, 0, 20, 0)
s = 114: (0, 18, 24, 0, 0, 32, 0, 0, 0, 0, 16, 0)
s = 115: (0, 30, 21, 0, 0, 34, 0, 0, 0, 0, 17, 0)
s = 116: (0, 33, 40, 0, 0, 24, 0, 0, 0, 0, 10, 0)
s = 117: (0, 31, 20, 0, 0, 41, 0, 0, 0, 0, 12, 0)
s = 118: (0, 27, 30, 0, 0, 28, 0, 0, 0, 0, 16, 0)
s = 119: (0, 28, 17, 0, 0, 58, 0, 0, 0, 0, 13, 0)
s = 120: (0, 26, 16, 0, 0, 32, 0, 0, 0, 0, 21, 0)
s = 121: (0, 23, 19, 0, 0, 51, 0, 0, 0, 0, 21, 0)
s = 122: (0, 20, 15, 0, 0, 29, 0, 0, 0, 0, 15, 0)
s = 123: (0, 32, 27, 0, 0, 44, 0, 0, 0, 0, 11, 0)
s = 124: (0, 24, 24, 0, 0, 43, 0, 0, 0, 0, 11, 0)
s = 125: (0, 17, 22, 0, 0, 34, 0, 0, 0, 0, 10, 0)
s = 126: (0, 15, 23, 0, 0, 33, 0, 0, 0, 0, 17, 0)
s = 127: (0, 27, 19, 0, 0, 44, 0, 0, 0, 0, 19, 0)
s = 128: (0, 31, 28, 0, 0, 38, 0, 0, 0, 0, 18, 0)
s = 129: (0, 19, 30, 0, 0, 27, 0, 0, 0, 0, 20, 0)
s = 130: (0, 32, 25, 0, 0, 27, 0, 0, 0, 0, 9, 0)
s = 131: (0, 26, 20, 0, 0, 25, 0, 0, 0, 0, 8, 0)
s = 132: (0, 29, 21, 0, 0, 35, 0, 0, 0, 0, 16, 0)
s = 133: (0, 29, 20, 0, 0, 25, 0, 0, 0, 0, 14, 0)
s = 134: (0, 31, 25, 0, 0, 33, 0, 0, 0, 0, 13, 0)
s = 135: (0, 26, 26, 0, 0, 31, 0, 0, 0, 0, 10, 0)
s = 136: (0, 27, 23, 0, 0, 34, 0, 0, 0, 0, 11, 0)
s = 137: (0, 25, 21, 0, 0, 24, 0, 0, 0, 0, 13, 0)
s = 138: (0, 16, 19, 0, 0, 27, 0, 0, 0, 0, 18, 0)
s = 139: (0, 29, 34, 0, 0, 29, 0, 0, 0, 0, 12, 0)
s = 140: (0, 29, 14, 0, 0, 40, 0, 0, 0, 0, 10, 0)
s = 141: (0, 32, 16, 0, 0, 35, 0, 0, 0, 0, 24, 0)
s = 142: (0, 21, 28, 0, 0, 39, 0, 0, 0, 0, 17, 0)
s = 143: (0, 27, 27, 0, 0, 59, 0, 0, 0, 0, 15, 0)
s = 144: (0, 21, 26, 0, 0, 25, 0, 0, 0, 0, 9, 0)
s = 145: (0, 19, 36, 0, 0, 38, 0, 0, 0, 0, 11, 0)
s = 146: (0, 16, 29, 0, 0, 48, 0, 0, 0, 0, 15, 0)
s = 147: (0, 31, 32, 0, 0, 49, 0, 0, 0, 0, 17, 0)
s = 148: (0, 25, 16, 0, 0, 26, 0, 0, 0, 0, 16, 0)
s = 149: (0, 30, 21, 0, 0, 40, 0, 0, 0, 0, 12, 0)
s = 150: (0, 23, 20, 0, 0, 41, 0, 0, 0, 0, 17, 0)
s = 151: (0, 21, 15, 0, 0, 47, 0, 0, 0, 0, 11, 0)
s = 152: (0, 33, 30, 0, 0, 23, 0, 0, 0, 0, 13, 0)
s = 153: (0, 45, 22, 0, 0, 41, 0, 0, 0, 0, 15, 0)
s = 154: (0, 22, 26, 0, 0, 34, 0, 0, 0, 0, 14, 0)
s = 155: (0, 17, 28, 0, 0, 44, 0, 0, 0, 0, 20, 0)
s = 156: (0, 26, 13, 0, 0, 45, 0, 0, 0, 0, 11, 0)
s = 157: (0, 32, 36, 0, 0, 33, 0, 0, 0, 0, 17, 0)
s = 158: (0, 24, 17, 0, 0, 39, 0, 0, 0, 0, 20, 0)
s = 159: (0, 22, 33, 0, 0, 33, 0, 0, 0, 0, 18, 0)
s = 160: (0, 28, 25, 0, 0, 21, 0, 0, 0, 0, 13, 0)
s = 161: (0, 31, 31, 0, 0, 28, 0, 0, 0, 0, 10, 0)
s = 162: (0, 26, 25, 0, 0, 29, 0, 0, 0, 0, 11, 0)
s = 163: (0, 31, 26, 0, 0, 34, 0, 0, 0, 0, 14, 0)
s = 164: (0, 17, 27, 0, 0, 35, 0, 0, 0, 0, 11, 0)
s = 165: (0, 35, 25, 0, 0, 24, 0, 0, 0, 0, 18, 0)
s = 166: (0, 28, 38, 0, 0, 31, 0, 0, 0, 0, 19, 0)
s = 167: (0, 19, 27, 0, 0, 28, 0, 0, 0, 0, 22, 0)
s = 168: (0, 27, 28, 0, 0, 23, 0, 0, 0, 0, 20, 0)
s = 169: (0, 18, 25, 0, 0, 32, 0, 0, 0, 0, 10, 0)
s = 170: (0, 21, 48, 0, 0, 41, 0, 0, 0, 0, 21, 0)
s = 171: (0, 32, 20, 0, 0, 29, 0, 0, 0, 0, 12, 0)
s = 172: (0, 38, 24, 0, 0, 23, 0, 0, 0, 0, 19, 0)
s = 173: (0, 27, 20, 0, 0, 30, 0, 0, 0, 0, 21, 0)
s = 174: (0, 28, 27, 0, 0, 27, 0, 0, 0, 0, 18, 0)
s = 175: (0, 26, 26, 0, 0, 46, 0, 0, 0, 0, 15, 0)
s = 176: (0, 26, 25, 0, 0, 31, 0, 0, 0, 0, 10, 0)
s = 177: (0, 21, 29, 0, 0, 31, 0, 0, 0, 0, 17, 0)
s = 178: (0, 21, 24, 0, 0, 37, 0, 0, 0, 0, 20, 0)
s = 179: (0, 30, 15, 0, 0, 65, 0, 0, 0, 0, 19, 0)
s = 180: (0, 21, 15, 0, 0, 37, 0, 0, 0, 0, 13, 0)
s = 181: (0, 17, 21, 0, 0, 49, 0, 0, 0, 0, 13, 0)
s = 182: (0, 17, 31, 0, 0, 28, 0, 0, 0, 0, 16, 0)
s = 183: (0, 41, 32, 0, 0, 38, 0, 0, 0, 0, 24, 0)
s = 184: (0, 16, 32, 0, 0, 35, 0, 0, 0, 0, 13, 0)
s = 185: (0, 36, 21, 0, 0, 45, 0, 0, 0, 0, 15, 0)
s = 186: (0, 18, 19, 0, 0, 47, 0, 0, 0, 0, 10, 0)
s = 187: (0, 15, 20, 0, 0, 54, 0, 0, 0, 0, 20, 0)
s = 188: (0, 17, 21, 0, 0, 27, 0, 0, 0, 0, 9, 0)
s = 189: (0, 20, 24, 0, 0, 27, 0, 0, 0, 0, 15, 0)
s = 190: (0, 23, 31, 0, 0, 32, 0, 0, 0, 0, 16, 0)
s = 191: (0, 16, 29, 0, 0, 46, 0, 0, 0, 0, 15, 0)
s = 192: (0, 19, 16, 0, 0, 21, 0, 0, 0, 0, 21, 0)
s = 193: (0, 21, 16, 0, 0, 31, 0, 0, 0, 0, 9, 0)
s = 194: (0, 25, 29, 0, 0, 32, 0, 0, 0, 0, 23, 0)
s = 195: (0, 16, 15, 0, 0, 29, 0, 0, 0, 0, 16, 0)
s = 196: (0, 15, 20, 0, 0, 29, 0, 0, 0, 0, 12, 0)
s = 197: (0, 31, 20, 0, 0, 24, 0, 0, 0, 0, 15, 0)
s = 198: (0, 43, 32, 0, 0, 24, 0, 0, 0, 0, 14, 0)
s = 199: (0, 18, 23, 0, 0, 35, 0, 0, 0, 0, 18, 0)
s = 200: (0, 23, 20, 0, 0, 47, 0, 0, 0, 0, 14, 0)
------------------------------------------------------------------------
RESOURCE k = 3
s = 1: (0, 0, 0, 10, 29, 0, 39, 3, 15, 6, 0, 0)
s = 2: (0, 0, 0, 15, 53, 0, 34, 3, 16, 12, 0, 0)
s = 3: (0, 0, 0, 13, 51, 0, 26, 3, 13, 12, 0, 0)
s = 4: (0, 0, 0, 8, 48, 0, 40, 4, 15, 8, 0, 0)
s = 5: (0, 0, 0, 10, 36, 0, 22, 4, 16, 13, 0, 0)
s = 6: (0, 0, 0, 17, 29, 0, 22, 4, 18, 9, 0, 0)
s = 7: (0, 0, 0, 11, 44, 0, 20, 3, 18, 6, 0, 0)
s = 8: (0, 0, 0, 19, 72, 0, 28, 4, 14, 11, 0, 0)
s = 9: (0, 0, 0, 10, 51, 0, 26, 3, 20, 11, 0, 0)
s = 10: (0, 0, 0, 19, 70, 0, 24, 4, 17, 8, 0, 0)
s = 11: (0, 0, 0, 14, 36, 0, 35, 4, 13, 7, 0, 0)
s = 12: (0, 0, 0, 10, 63, 0, 27, 2, 20, 11, 0, 0)
s = 13: (0, 0, 0, 19, 41, 0, 45, 4, 16, 9, 0, 0)
s = 14: (0, 0, 0, 10, 45, 0, 23, 3, 16, 7, 0, 0)
s = 15: (0, 0, 0, 8, 70, 0, 36, 3, 17, 9, 0, 0)
s = 16: (0, 0, 0, 9, 40, 0, 22, 2, 14, 7, 0, 0)
s = 17: (0, 0, 0, 13, 61, 0, 22, 3, 21, 10, 0, 0)
s = 18: (0, 0, 0, 15, 73, 0, 20, 3, 13, 6, 0, 0)
s = 19: (0, 0, 0, 12, 31, 0, 28, 5, 11, 7, 0, 0)
s = 20: (0, 0, 0, 10, 44, 0, 32, 2, 19, 12, 0, 0)
s = 21: (0, 0, 0, 9, 32, 0, 47, 4, 16, 12, 0, 0)
s = 22: (0, 0, 0, 15, 43, 0, 43, 4, 17, 6, 0, 0)
s = 23: (0, 0, 0, 17, 38, 0, 35, 4, 13, 6, 0, 0)
s = 24: (0, 0, 0, 14, 42, 0, 44, 3, 17, 7, 0, 0)
s = 25: (0, 0, 0, 18, 44, 0, 34, 3, 15, 8, 0, 0)
s = 26: (0, 0, 0, 14, 57, 0, 35, 4, 15, 11, 0, 0)
s = 27: (0, 0, 0, 11, 38, 0, 24, 4, 18, 8, 0, 0)
s = 28: (0, 0, 0, 15, 42, 0, 21, 3, 15, 11, 0, 0)
s = 29: (0, 0, 0, 15, 46, 0, 20, 2, 11, 7, 0, 0)
s = 30: (0, 0, 0, 16, 69, 0, 26, 4, 20, 9, 0, 0)
s = 31: (0, 0, 0, 9, 35, 0, 26, 4, 12, 13, 0, 0)
s = 32: (0, 0, 0, 12, 65, 0, 22, 4, 13, 8, 0, 0)
s = 33: (0, 0, 0, 13, 67, 0, 20, 3, 18, 6, 0, 0)
s = 34: (0, 0, 0, 18, 65, 0, 19, 3, 12, 9, 0, 0)
s = 35: (0, 0, 0, 11, 34, 0, 16, 4, 10, 10, 0, 0)
s = 36: (0, 0, 0, 12, 57, 0, 16, 2, 17, 10, 0, 0)
s = 37: (0, 0, 0, 13, 49, 0, 23, 4, 22, 8, 0, 0)
s = 38: (0, 0, 0, 13, 58, 0, 16, 3, 23, 14, 0, 0)
s = 39: (0, 0, 0, 11, 66, 0, 16, 3, 16, 10, 0, 0)
s = 40: (0, 0, 0, 15, 34, 0, 20, 2, 20, 6, 0, 0)
s = 41: (0, 0, 0, 10, 27, 0, 27, 5, 13, 7, 0, 0)
s = 42: (0, 0, 0, 12, 47, 0, 22, 3, 10, 6, 0, 0)
s = 43: (0, 0, 0, 17, 43, 0, 37, 3, 18, 5, 0, 0)
s = 44: (0, 0, 0, 16, 69, 0, 19, 3, 19, 7, 0, 0)
s = 45: (0, 0, 0, 8, 44, 0, 19, 2, 21, 7, 0, 0)
s = 46: (0, 0, 0, 8, 45, 0, 17, 3, 15, 6, 0, 0)
s = 47: (0, 0, 0, 9, 58, 0, 32, 2, 19, 12, 0, 0)
s = 48: (0, 0, 0, 16, 34, 0, 44, 3, 22, 7, 0, 0)
s = 49: (0, 0, 0, 15, 37, 0, 20, 3, 17, 10, 0, 0)
s = 50: (0, 0, 0, 9, 31, 0, 43, 4, 14, 11, 0, 0)
s = 51: (0, 0, 0, 10, 69, 0, 24, 4, 16, 7, 0, 0)
s = 52: (0, 0, 0, 9, 59, 0, 24, 4, 28, 9, 0, 0)
s = 53: (0, 0, 0, 9, 40, 0, 30, 2, 26, 13, 0, 0)
s = 54: (0, 0, 0, 15, 67, 0, 19, 3, 10, 11, 0, 0)
s = 55: (0, 0, 0, 15, 37, 0, 24, 2, 18, 5, 0, 0)
s = 56: (0, 0, 0, 13, 33, 0, 23, 2, 13, 6, 0, 0)
s = 57: (0, 0, 0, 9, 34, 0, 43, 5, 12, 6, 0, 0)
s = 58: (0, 0, 0, 11, 49, 0, 26, 4, 15, 14, 0, 0)
s = 59: (0, 0, 0, 16, 28, 0, 20, 3, 16, 8, 0, 0)
s = 60: (0, 0, 0, 21, 45, 0, 26, 3, 18, 6, 0, 0)
s = 61: (0, 0, 0, 9, 40, 0, 18, 4, 14, 7, 0, 0)
s = 62: (0, 0, 0, 9, 95, 0, 22, 3, 11, 8, 0, 0)
s = 63: (0, 0, 0, 8, 89, 0, 24, 3, 16, 11, 0, 0)
s = 64: (0, 0, 0, 8, 56, 0, 15, 4, 12, 9, 0, 0)
s = 65: (0, 0, 0, 17, 61, 0, 35, 3, 20, 6, 0, 0)
s = 66: (0, 0, 0, 14, 49, 0, 25, 3, 10, 9, 0, 0)
s = 67: (0, 0, 0, 18, 37, 0, 37, 4, 15, 7, 0, 0)
s = 68: (0, 0, 0, 14, 51, 0, 25, 3, 31, 9, 0, 0)
s = 69: (0, 0, 0, 15, 37, 0, 30, 4, 15, 8, 0, 0)
s = 70: (0, 0, 0, 10, 62, 0, 28, 3, 13, 9, 0, 0)
s = 71: (0, 0, 0, 11, 32, 0, 17, 3, 18, 12, 0, 0)
s = 72: (0, 0, 0, 8, 27, 0, 21, 4, 21, 6, 0, 0)
s = 73: (0, 0, 0, 11, 75, 0, 26, 5, 15, 10, 0, 0)
s = 74: (0, 0, 0, 19, 52, 0, 33, 3, 14, 8, 0, 0)
s = 75: (0, 0, 0, 12, 59, 0, 18, 2, 19, 10, 0, 0)
s = 76: (0, 0, 0, 10, 43, 0, 36, 3, 13, 8, 0, 0)
s = 77: (0, 0, 0, 12, 34, 0, 31, 3, 26, 8, 0, 0)
s = 78: (0, 0, 0, 14, 55, 0, 28, 4, 16, 6, 0, 0)
s = 79: (0, 0, 0, 12, 26, 0, 33, 4, 13, 9, 0, 0)
s = 80: (0, 0, 0, 14, 58, 0, 19, 3, 12, 12, 0, 0)
s = 81: (0, 0, 0, 17, 52, 0, 25, 3, 14, 11, 0, 0)
s = 82: (0, 0, 0, 9, 39, 0, 25, 5, 15, 7, 0, 0)
s = 83: (0, 0, 0, 13, 45, 0, 25, 4, 11, 6, 0, 0)
s = 84: (0, 0, 0, 16, 44, 0, 35, 3, 11, 9, 0, 0)
s = 85: (0, 0, 0, 11, 59, 0, 23, 2, 17, 12, 0, 0)
s = 86: (0, 0, 0, 16, 52, 0, 28, 4, 14, 7, 0, 0)
s = 87: (0, 0, 0, 9, 44, 0, 18, 4, 18, 5, 0, 0)
s = 88: (0, 0, 0, 9, 31, 0, 33, 3, 13, 10, 0, 0)
s = 89: (0, 0, 0, 9, 60, 0, 27, 3, 14, 10, 0, 0)
s = 90: (0, 0, 0, 14, 40, 0, 26, 5, 12, 12, 0, 0)
s = 91: (0, 0, 0, 16, 67, 0, 28, 4, 15, 9, 0, 0)
s = 92: (0, 0, 0, 12, 85, 0, 48, 4, 17, 5, 0, 0)
s = 93: (0, 0, 0, 18, 73, 0, 23, 3, 16, 8, 0, 0)
s = 94: (0, 0, 0, 14, 82, 0, 25, 3, 15, 6, 0, 0)
s = 95: (0, 0, 0, 16, 36, 0, 36, 2, 25, 7, 0, 0)
s = 96: (0, 0, 0, 18, 79, 0, 25, 4, 13, 7, 0, 0)
s = 97: (0, 0, 0, 9, 71, 0, 46, 2, 14, 11, 0, 0)
s = 98: (0, 0, 0, 10, 42, 0, 22, 4, 10, 6, 0, 0)
s = 99: (0, 0, 0, 15, 31, 0, 45, 3, 23, 10, 0, 0)
s = 100: (0, 0, 0, 13, 45, 0, 32, 4, 13, 6, 0, 0)
s = 101: (0, 0, 0, 10, 39, 0, 26, 3, 10, 10, 0, 0)
s = 102: (0, 0, 0, 10, 30, 0, 18, 5, 10, 8, 0, 0)
s = 103: (0, 0, 0, 12, 52, 0, 38, 3, 15, 14, 0, 0)
s = 104: (0, 0, 0, 15, 49, 0, 30, 6, 15, 8, 0, 0)
s = 105: (0, 0, 0, 17, 49, 0, 31, 3, 11, 8, 0, 0)
s = 106: (0, 0, 0, 17, 34, 0, 15, 3, 10, 6, 0, 0)
s = 107: (0, 0, 0, 12, 72, 0, 45, 3, 15, 12, 0, 0)
s = 108: (0, 0, 0, 12, 54, 0, 32, 4, 21, 7, 0, 0)
s = 109: (0, 0, 0, 10, 48, 0, 28, 2, 17, 6, 0, 0)
s = 110: (0, 0, 0, 10, 44, 0, 46, 3, 10, 10, 0, 0)
s = 111: (0, 0, 0, 15, 31, 0, 34, 3, 21, 9, 0, 0)
s = 112: (0, 0, 0, 10, 42, 0, 21, 3, 15, 9, 0, 0)
s = 113: (0, 0, 0, 17, 80, 0, 23, 4, 20, 10, 0, 0)
s = 114: (0, 0, 0, 8, 51, 0, 23, 3, 25, 7, 0, 0)
s = 115: (0, 0, 0, 12, 50, 0, 22, 4, 16, 5, 0, 0)
s = 116: (0, 0, 0, 11, 44, 0, 21, 4, 16, 8, 0, 0)
s = 117: (0, 0, 0, 12, 28, 0, 23, 5, 26, 7, 0, 0)
s = 118: (0, 0, 0, 8, 54, 0, 22, 3, 14, 6, 0, 0)
s = 119: (0, 0, 0, 11, 48, 0, 43, 2, 17, 9, 0, 0)
s = 120: (0, 0, 0, 11, 54, 0, 45, 3, 21, 6, 0, 0)
s = 121: (0, 0, 0, 15, 45, 0, 32, 3, 19, 7, 0, 0)
s = 122: (0, 0, 0, 15, 40, 0, 37, 3, 23, 9, 0, 0)
s = 123: (0, 0, 0, 9, 41, 0, 34, 2, 21, 9, 0, 0)
s = 124: (0, 0, 0, 11, 43, 0, 25, 4, 19, 7, 0, 0)
s = 125: (0, 0, 0, 18, 51, 0, 26, 3, 20, 6, 0, 0)
s = 126: (0, 0, 0, 13, 40, 0, 31, 3, 17, 5, 0, 0)
s = 127: (0, 0, 0, 15, 31, 0, 27, 2, 15, 6, 0, 0)
s = 128: (0, 0, 0, 18, 74, 0, 27, 3, 18, 5, 0, 0)
s = 129: (0, 0, 0, 16, 43, 0, 22, 3, 18, 10, 0, 0)
s = 130: (0, 0, 0, 14, 25, 0, 44, 3, 18, 8, 0, 0)
s = 131: (0, 0, 0, 10, 39, 0, 18, 3, 19, 8, 0, 0)
s = 132: (0, 0, 0, 12, 61, 0, 25, 5, 13, 5, 0, 0)
s = 133: (0, 0, 0, 9, 42, 0, 32, 3, 22, 9, 0, 0)
s = 134: (0, 0, 0, 20, 46, 0, 33, 5, 17, 7, 0, 0)
s = 135: (0, 0, 0, 10, 49, 0, 32, 4, 14, 9, 0, 0)
s = 136: (0, 0, 0, 16, 36, 0, 34, 2, 20, 7, 0, 0)
s = 137: (0, 0, 0, 9, 46, 0, 19, 4, 16, 8, 0, 0)
s = 138: (0, 0, 0, 16, 39, 0, 29, 5, 11, 7, 0, 0)
s = 139: (0, 0, 0, 8, 42, 0, 33, 4, 13, 12, 0, 0)
s = 140: (0, 0, 0, 12, 61, 0, 33, 3, 15, 13, 0, 0)
s = 141: (0, 0, 0, 12, 52, 0, 26, 3, 19, 8, 0, 0)
s = 142: (0, 0, 0, 17, 70, 0, 18, 3, 20, 7, 0, 0)
s = 143: (0, 0, 0, 12, 34, 0, 25, 3, 24, 8, 0, 0)
s = 144: (0, 0, 0, 13, 52, 0, 24, 2, 10, 9, 0, 0)
s = 145: (0, 0, 0, 13, 46, 0, 33, 4, 11, 12, 0, 0)
s = 146: (0, 0, 0, 13, 45, 0, 29, 3, 12, 7, 0, 0)
s = 147: (0, 0, 0, 10, 40, 0, 19, 4, 15, 12, 0, 0)
s = 148: (0, 0, 0, 15, 42, 0, 33, 4, 17, 6, 0, 0)
s = 149: (0, 0, 0, 17, 39, 0, 17, 4, 24, 5, 0, 0)
s = 150: (0, 0, 0, 17, 38, 0, 37, 3, 10, 8, 0, 0)
s = 151: (0, 0, 0, 9, 67, 0, 27, 5, 17, 6, 0, 0)
s = 152: (0, 0, 0, 11, 63, 0, 40, 3, 10, 9, 0, 0)
s = 153: (0, 0, 0, 12, 53, 0, 16, 3, 13, 9, 0, 0)
s = 154: (0, 0, 0, 11, 56, 0, 21, 3, 23, 7, 0, 0)
s = 155: (0, 0, 0, 11, 38, 0, 36, 3, 19, 14, 0, 0)
s = 156: (0, 0, 0, 9, 32, 0, 23, 3, 17, 7, 0, 0)
s = 157: (0, 0, 0, 12, 65, 0, 29, 4, 18, 6, 0, 0)
s = 158: (0, 0, 0, 13, 57, 0, 35, 4, 16, 8, 0, 0)
s = 159: (0, 0, 0, 9, 42, 0, 32, 3, 11, 6, 0, 0)
s = 160: (0, 0, 0, 9, 62, 0, 20, 4, 16, 10, 0, 0)
s = 161: (0, 0, 0, 13, 57, 0, 29, 4, 19, 12, 0, 0)
s = 162: (0, 0, 0, 8, 39, 0, 30, 4, 24, 8, 0, 0)
s = 163: (0, 0, 0, 11, 38, 0, 27, 4, 19, 9, 0, 0)
s = 164: (0, 0, 0, 15, 36, 0, 32, 5, 25, 11, 0, 0)
s = 165: (0, 0, 0, 15, 39, 0, 23, 4, 20, 10, 0, 0)
s = 166: (0, 0, 0, 7, 43, 0, 46, 5, 18, 6, 0, 0)
s = 167: (0, 0, 0, 10, 47, 0, 21, 3, 14, 10, 0, 0)
s = 168: (0, 0, 0, 9, 67, 0, 30, 3, 18, 6, 0, 0)
s = 169: (0, 0, 0, 14, 55, 0, 31, 4, 27, 12, 0, 0)
s = 170: (0, 0, 0, 12, 49, 0, 18, 2, 15, 14, 0, 0)
s = 171: (0, 0, 0, 7, 48, 0, 22, 3, 26, 5, 0, 0)
s = 172: (0, 0, 0, 12, 57, 0, 23, 3, 11, 13, 0, 0)
s = 173: (0, 0, 0, 9, 60, 0, 19, 3, 12, 8, 0, 0)
s = 174: (0, 0, 0, 13, 65, 0, 27, 3, 18, 12, 0, 0)
s = 175: (0, 0, 0, 15, 53, 0, 17, 4, 12, 10, 0, 0)
s = 176: (0, 0, 0, 9, 37, 0, 27, 4, 18, 8, 0, 0)
s = 177: (0, 0, 0, 15, 37, 0, 24, 2, 17, 6, 0, 0)
s = 178: (0, 0, 0, 8, 50, 0, 28, 5, 17, 7, 0, 0)
s = 179: (0, 0, 0, 14, 41, 0, 41, 4, 9, 6, 0, 0)
s = 180: (0, 0, 0, 14, 51, 0, 35, 5, 11, 11, 0, 0)
s = 181: (0, 0, 0, 9, 59, 0, 43, 3, 19, 6, 0, 0)
s = 182: (0, 0, 0, 8, 73, 0, 29, 3, 26, 6, 0, 0)
s = 183: (0, 0, 0, 8, 31, 0, 21, 3, 13, 8, 0, 0)
s = 184: (0, 0, 0, 12, 44, 0, 22, 3, 21, 6, 0, 0)
s = 185: (0, 0, 0, 10, 38, 0, 18, 3, 22, 9, 0, 0)
s = 186: (0, 0, 0, 13, 43, 0, 23, 3, 19, 10, 0, 0)
s = 187: (0, 0, 0, 14, 49, 0, 53, 3, 14, 8, 0, 0)
s = 188: (0, 0, 0, 9, 30, 0, 36, 2, 10, 6, 0, 0)
s = 189: (0, 0, 0, 9, 28, 0, 22, 4, 19, 10, 0, 0)
s = 190: (0, 0, 0, 11, 64, 0, 36, 3, 12, 7, 0, 0)
s = 191: (0, 0, 0, 8, 40, 0, 34, 2, 26, 12, 0, 0)
s = 192: (0, 0, 0, 14, 43, 0, 16, 4, 13, 6, 0, 0)
s = 193: (0, 0, 0, 15, 66, 0, 37, 4, 12, 12, 0, 0)
s = 194: (0, 0, 0, 15, 34, 0, 17, 5, 18, 6, 0, 0)
s = 195: (0, 0, 0, 10, 60, 0, 34, 4, 11, 7, 0, 0)
s = 196: (0, 0, 0, 16, 69, 0, 32, 4, 20, 11, 0, 0)
s = 197: (0, 0, 0, 11, 60, 0, 23, 3, 23, 7, 0, 0)
s = 198: (0, 0, 0, 12, 47, 0, 32, 2, 10, 7, 0, 0)
s = 199: (0, 0, 0, 16, 78, 0, 33, 4, 13, 11, 0, 0)
s = 200: (0, 0, 0, 11, 33, 0, 43, 4, 9, 12, 0, 0)
************************************************************************
ES/LS-VALUES:
jobnr.   ES(i)    LS(i)
------------------------------------------------------------------------
  0        0        0
  1        0       54
  2        0       48
  3        0       53
  4        7       60
  5       12       62
  6       12       60
  7       12       68
  8       19       72
  9       25       74
 10       19       70
 11       26       76
************************************************************************
BIG-M-VALUES:
M1 = 62, M2 = 234
************************************************************************
